; benchmark generated from python API
(set-info :status unknown)
(declare-fun W_S2_V5 () Bool)
(declare-fun W_S2_V2 () Bool)
(declare-fun W_S2_V3 () Bool)
(declare-fun W_S2_V1 () Bool)
(declare-fun W_S1_V4 () Bool)
(declare-fun W_S1_V5 () Bool)
(declare-fun W_S1_V2 () Bool)
(declare-fun W_S1_V1 () Bool)
(declare-fun R_E1_V1 () Bool)
(declare-fun R_E1_V4 () Bool)
(declare-fun R_E1_V5 () Bool)
(declare-fun R_E1_V2 () Bool)
(declare-fun R_E1_V3 () Bool)
(declare-fun DISJ_W_S2_R_E1 () Bool)
(declare-fun R_S2_V4 () Bool)
(declare-fun R_S2_V5 () Bool)
(declare-fun R_S2_V2 () Bool)
(declare-fun R_S2_V3 () Bool)
(declare-fun R_S2_V1 () Bool)
(declare-fun DISJ_W_S2_R_S2 () Bool)
(declare-fun R_S1_V4 () Bool)
(declare-fun R_S1_V5 () Bool)
(declare-fun R_S1_V2 () Bool)
(declare-fun R_S1_V3 () Bool)
(declare-fun R_S1_V1 () Bool)
(declare-fun DISJ_W_S2_R_S1 () Bool)
(declare-fun DISJ_W_S1_W_S2 () Bool)
(declare-fun DISJ_W_S1_R_E1 () Bool)
(declare-fun DISJ_W_S1_R_S2 () Bool)
(declare-fun DISJ_W_S1_R_S1 () Bool)
(declare-fun W_S2_V4 () Bool)
(declare-fun W_S1_V3 () Bool)
(assert
 (let (($x4993 (forall ((V1_0 Int) )(forall ((V2_0 Int) )(forall ((MW_S1_V1 Bool) )(forall ((MW_S1_V2 Bool) )(forall ((MW_S1_V5 Bool) )(forall ((MW_S1_V4 Bool) )(forall ((MW_S2_V1 Bool) )(forall ((MW_S2_V3 Bool) )(forall ((MW_S2_V2 Bool) )(forall ((MW_S2_V5 Bool) )(forall ((E1_!336 Int) )(forall ((E1_!337 Int) )(forall ((E1_!338 Int) )(let (($x967 (= E1_!337 E1_!338)))
 (let (($x1717 (not MW_S2_V2)))
 (let (($x3413 (or $x1717 W_S2_V2)))
 (let (($x3355 (not MW_S2_V3)))
 (let (($x5215 (or $x3355 W_S2_V3)))
 (let (($x2700 (not MW_S1_V5)))
 (let (($x2392 (or $x2700 W_S1_V5)))
 (let (($x3980 (= E1_!338 E1_!337)))
 (let (($x238 (not (or (not R_E1_V1) (= V1_0 E1_!336)))))
 (let (($x5135 (or $x238 $x3980)))
 (let (($x505 (or $x238 (= E1_!336 E1_!337))))
 (let (($x2576 (and $x505 (= E1_!338 E1_!336) $x5135 (or (not MW_S1_V1) W_S1_V1) (or (not MW_S1_V2) W_S1_V2) $x2392 (or (not MW_S1_V4) W_S1_V4) (or (not MW_S2_V1) W_S2_V1) $x5215 $x3413 (or (not MW_S2_V5) W_S2_V5))))
 (or (not $x2576) (not (and (>= E1_!336 V2_0) (>= E1_!337 V2_0) (>= E1_!338 V2_0))) $x967))))))))))))))
 )
 )
 )
 )
 )
 )
 )
 )
 )
 )
 )
 )
 ))
 (let (($x4639 (and W_S2_V5 R_E1_V5)))
 (let (($x3610 (and W_S2_V2 R_E1_V2)))
 (let (($x2617 (and W_S2_V3 R_E1_V3)))
 (let (($x3110 (and W_S2_V1 R_E1_V1)))
 (let (($x2503 (= DISJ_W_S2_R_E1 (not (or $x3110 $x2617 $x3610 $x4639 R_E1_V4)))))
 (let (($x215 (and W_S2_V5 R_S2_V5)))
 (let (($x1127 (and W_S2_V2 R_S2_V2)))
 (let (($x2210 (and W_S2_V3 R_S2_V3)))
 (let (($x1946 (and W_S2_V1 R_S2_V1)))
 (let (($x5216 (= DISJ_W_S2_R_S2 (not (or $x1946 $x2210 $x1127 $x215 R_S2_V4)))))
 (let (($x3007 (and W_S2_V5 R_S1_V5)))
 (let (($x120 (and W_S2_V2 R_S1_V2)))
 (let (($x3012 (and W_S2_V3 R_S1_V3)))
 (let (($x2283 (and W_S2_V1 R_S1_V1)))
 (let (($x4623 (= DISJ_W_S2_R_S1 (not (or $x2283 $x3012 $x120 $x3007 R_S1_V4)))))
 (let (($x5969 (and W_S1_V5 W_S2_V5)))
 (let (($x2394 (and W_S1_V2 W_S2_V2)))
 (let (($x2200 (and W_S1_V1 W_S2_V1)))
 (let (($x2302 (= DISJ_W_S1_W_S2 (not (or $x2200 W_S2_V3 $x2394 $x5969 W_S1_V4)))))
 (let (($x2017 (and W_S1_V4 R_E1_V4)))
 (let (($x1934 (and W_S1_V5 R_E1_V5)))
 (let (($x1778 (and W_S1_V2 R_E1_V2)))
 (let (($x2305 (and W_S1_V1 R_E1_V1)))
 (let (($x5915 (= DISJ_W_S1_R_E1 (not (or $x2305 R_E1_V3 $x1778 $x1934 $x2017)))))
 (let (($x3166 (and W_S1_V4 R_S2_V4)))
 (let (($x5239 (and W_S1_V5 R_S2_V5)))
 (let (($x864 (and W_S1_V2 R_S2_V2)))
 (let (($x996 (and W_S1_V1 R_S2_V1)))
 (let (($x5233 (= DISJ_W_S1_R_S2 (not (or $x996 R_S2_V3 $x864 $x5239 $x3166)))))
 (let (($x197 (and W_S1_V4 R_S1_V4)))
 (let (($x1614 (and W_S1_V5 R_S1_V5)))
 (let (($x5006 (and W_S1_V2 R_S1_V2)))
 (let (($x1777 (and W_S1_V1 R_S1_V1)))
 (let (($x3420 (= DISJ_W_S1_R_S1 (not (or $x1777 R_S1_V3 $x5006 $x1614 $x197)))))
 (and W_S1_V3 W_S2_V4 $x3420 $x5233 $x5915 $x2302 $x4623 $x5216 $x2503 $x4993)))))))))))))))))))))))))))))))))))))
(check-sat)
